
Gurobi 7.5.2 (linux64) logging started Sat Jun 23 16:55:43 2018

Changed value of parameter LogFile to result/ilp/simNo_1-n_100-m_40-s_4-minVAF_0.05-cov_2000-k_2-fn_0.10-fp_0.0001-na_0.15.ILP.gurobiSolverLog
   Prev: gurobi.log  Default: 
Changed value of parameter TimeLimit to 86400.0
   Prev: 1e+100  Min: 0.0  Max: 1e+100  Default: 1e+100
Optimize a model with 1265601 rows, 330440 columns and 3489120 nonzeros
Variable types: 0 continuous, 330440 integer (330440 binary)
Coefficient statistics:
  Matrix range     [2e-03, 3e+00]
  Objective range  [4e-01, 9e+00]
  Bounds range     [1e+00, 1e+00]
  RHS range        [2e-01, 2e+00]
Found heuristic solution: objective -18612.05021
Presolve removed 329283 rows and 213145 columns (presolve time = 7s) ...
Presolve removed 329793 rows and 213145 columns (presolve time = 10s) ...
Presolve removed 329793 rows and 213145 columns (presolve time = 15s) ...
Presolve removed 329793 rows and 213145 columns (presolve time = 20s) ...
Presolve removed 329793 rows and 213145 columns (presolve time = 25s) ...
Presolve removed 329793 rows and 213145 columns (presolve time = 30s) ...
Presolve removed 329793 rows and 213145 columns (presolve time = 35s) ...
Presolve removed 329793 rows and 213145 columns (presolve time = 40s) ...
Presolve removed 329793 rows and 213145 columns (presolve time = 48s) ...
Presolve removed 329793 rows and 213145 columns (presolve time = 50s) ...
Presolve removed 329793 rows and 213145 columns
Presolve time: 50.30s
Presolved: 935808 rows, 117295 columns, 2593200 nonzeros
Variable types: 0 continuous, 117295 integer (117295 binary)
Presolve removed 0 rows and 0 columns (presolve time = 6s) ...
Presolved: 117295 rows, 1053103 columns, 2710495 nonzeros

Presolve removed 117295 rows and 1053103 columns

Root simplex log...

Iteration    Objective       Primal Inf.    Dual Inf.      Time
       0    1.4443240e+01   0.000000e+00   1.164410e+05     65s
    5441   -7.6147812e+01   0.000000e+00   1.424600e+04     65s
   17008   -2.0653747e+02   0.000000e+00   1.189683e+05     70s
   26800   -2.5461264e+02   0.000000e+00   8.671944e+04     75s
   36610   -2.9440490e+02   0.000000e+00   0.000000e+00     80s
   36610   -2.9440490e+02   0.000000e+00   0.000000e+00     82s

Root relaxation: objective -2.944049e+02, 36610 iterations, 27.81 seconds
Total elapsed time = 132.01s
Total elapsed time = 157.83s
Total elapsed time = 177.34s

    Nodes    |    Current Node    |     Objective Bounds      |     Work
 Expl Unexpl |  Obj  Depth IntInf | Incumbent    BestBd   Gap | It/Node Time

     0     0 -294.40490    0 1116 -18612.050 -294.40490  98.4%     -  186s
H    0     0                    -2890.074482 -294.40490  89.8%     -  204s
H    0     0                    -403.3971225 -294.40490  27.0%     -  207s
H    0     0                    -383.4202991 -294.40490  23.2%     -  208s
     0     0 -299.95402    0 1098 -383.42030 -299.95402  21.8%     -  226s
     0     0 -306.05865    0 1101 -383.42030 -306.05865  20.2%     -  256s
H    0     0                    -381.2006520 -306.05865  19.7%     -  269s
     0     0 -306.24342    0 1188 -381.20065 -306.24342  19.7%     -  275s
     0     0 -306.24342    0 1188 -381.20065 -306.24342  19.7%     -  284s
     0     0 -307.16847    0 1030 -381.20065 -307.16847  19.4%     -  304s
H    0     0                    -378.5219684 -307.16847  18.9%     -  314s
     0     0 -307.16847    0 1023 -378.52197 -307.16847  18.9%     -  318s
     0     0 -309.38812    0  986 -378.52197 -309.38812  18.3%     -  339s
H    0     0                    -374.0826744 -309.38812  17.3%     -  349s
     0     0 -309.66558    0  997 -374.08267 -309.66558  17.2%     -  353s
     0     0 -311.60777    0  985 -374.08267 -311.60777  16.7%     -  378s
     0     0 -313.27190    0  961 -374.08267 -313.27190  16.3%     -  407s
H    0     0                    -369.6433803 -313.27190  15.3%     -  420s
     0     0 -313.27190    0  971 -369.64338 -313.27190  15.3%     -  423s
     0     0 -313.82681    0  957 -369.64338 -313.82681  15.1%     -  446s
     0     0 -313.82681    0  950 -369.64338 -313.82681  15.1%     -  461s
     0     0 -314.38233    0  910 -369.64338 -314.38233  14.9%     -  482s
     0     0 -314.93663    0  899 -369.64338 -314.93663  14.8%     -  501s
     0     0 -314.93663    0  899 -369.64338 -314.93663  14.8%     -  509s
     0     0 -314.93663    0  970 -369.64338 -314.93663  14.8%     -  526s
     0     0 -314.93663    0  949 -369.64338 -314.93663  14.8%     -  541s
     0     0 -316.04646    0  861 -369.64338 -316.04646  14.5%     -  564s
     0     0 -317.31483    0  855 -369.64338 -317.31483  14.2%     -  593s
     0     0 -317.31483    0  851 -369.64338 -317.31483  14.2%     -  608s
     0     0 -317.86974    0  849 -369.64338 -317.86974  14.0%     -  629s
     0     0 -317.86974    0  852 -369.64338 -317.86974  14.0%     -  643s
     0     0 -319.52727    0  924 -369.64338 -319.52727  13.6%     -  669s
     0     0 -319.93084    0  855 -369.64338 -319.93084  13.4%     -  693s
     0     0 -319.93084    0  843 -369.64338 -319.93084  13.4%     -  701s
     0     0 -320.54741    0  852 -369.64338 -320.54741  13.3%     -  721s
     0     0 -320.67072    0  849 -369.64338 -320.67072  13.2%     -  740s
     0     0 -320.67072    0  848 -369.64338 -320.67072  13.2%     -  751s
     0     0 -322.70540    0  787 -369.64338 -322.70540  12.7%     -  778s
     0     0 -322.73804    0  798 -369.64338 -322.73804  12.7%     -  796s
     0     0 -322.75910    0  800 -369.64338 -322.75910  12.7%     -  805s
     0     0 -322.75910    0  800 -369.64338 -322.75910  12.7%     -  814s
     0     0 -324.42198    0 1162 -369.64338 -324.42198  12.2%     -  860s
     0     0 -324.67373    0 1660 -369.64338 -324.67373  12.2%     -  903s
     0     0 -324.67373    0 1662 -369.64338 -324.67373  12.2%     -  918s
     0     0 -326.81175    0  792 -369.64338 -326.81175  11.6%     -  966s
     0     0 -326.86724    0  794 -369.64338 -326.86724  11.6%     -  989s
     0     0 -326.90687    0  787 -369.64338 -326.90687  11.6%     - 1002s
     0     0 -327.03371    0  793 -369.64338 -327.03371  11.5%     - 1017s
     0     0 -327.03371    0  795 -369.64338 -327.03371  11.5%     - 1026s
     0     0 -328.73435    0 1195 -369.64338 -328.73435  11.1%     - 1062s
H    0     0                    -364.2216632 -328.73435  9.74%     - 1076s
     0     0 -329.12134    0 1192 -364.22166 -329.12134  9.64%     - 1104s
     0     0 -329.12134    0 1191 -364.22166 -329.12134  9.64%     - 1117s
     0     0 -332.02178    0 1171 -364.22166 -332.02178  8.84%     - 1299s
     0     0 -332.11787    0 1201 -364.22166 -332.11787  8.81%     - 1322s
     0     0 -332.13842    0 1200 -364.22166 -332.13842  8.81%     - 1333s
     0     0 -332.13842    0 1200 -364.22166 -332.13842  8.81%     - 1342s
     0     0 -333.81623    0 1190 -364.22166 -333.81623  8.35%     - 1370s
     0     0 -333.85659    0 1190 -364.22166 -333.85659  8.34%     - 1399s
     0     0 -333.85659    0 1196 -364.22166 -333.85659  8.34%     - 1407s
     0     0 -335.24057    0 1200 -364.22166 -335.24057  7.96%     - 1461s
     0     0 -335.64421    0 1197 -364.22166 -335.64421  7.85%     - 1501s
     0     0 -335.69706    0 1194 -364.22166 -335.69706  7.83%     - 1515s
     0     0 -335.69706    0 1196 -364.22166 -335.69706  7.83%     - 1524s
     0     0 -336.63913    0 1169 -364.22166 -336.63913  7.57%     - 1546s
     0     0 -336.87163    0 1128 -364.22166 -336.87163  7.51%     - 1576s
     0     0 -336.87163    0 1140 -364.22166 -336.87163  7.51%     - 1585s
     0     0 -337.34486    0 1061 -364.22166 -337.34486  7.38%     - 1615s
     0     0 -337.34486    0 1061 -364.22166 -337.34486  7.38%     - 1631s
     0     0 -337.98145    0 1128 -364.22166 -337.98145  7.20%     - 1652s
     0     0 -337.98145    0 1142 -364.22166 -337.98145  7.20%     - 1675s
     0     0 -338.08394    0 1051 -364.22166 -338.08394  7.18%     - 1696s
     0     0 -338.08394    0 1050 -364.22166 -338.08394  7.18%     - 1712s
     0     0 -338.68250    0 1170 -364.22166 -338.68250  7.01%     - 1748s
     0     0 -338.74708    0 1192 -364.22166 -338.74708  6.99%     - 1780s
     0     0 -338.74708    0 1200 -364.22166 -338.74708  6.99%     - 1790s
     0     0 -339.56371    0 1047 -364.22166 -339.56371  6.77%     - 1822s
     0     0 -339.56371    0 1047 -364.22166 -339.56371  6.77%     - 1836s
     0     0 -339.56451    0 1058 -364.22166 -339.56451  6.77%     - 1860s
     0     0 -339.56451    0 1058 -364.22166 -339.56451  6.77%     - 1877s
     0     0 -340.55564    0 1145 -364.22166 -340.55564  6.50%     - 2108s
     0     0 -340.57104    0 1125 -364.22166 -340.57104  6.49%     - 2135s
     0     0 -340.57104    0 1124 -364.22166 -340.57104  6.49%     - 2144s
     0     0 -340.57104    0 1126 -364.22166 -340.57104  6.49%     - 2165s
     0     0 -340.57104    0 1129 -364.22166 -340.57104  6.49%     - 2189s
     0     0 -341.04347    0 1038 -364.22166 -341.04347  6.36%     - 2290s
     0     0 -341.04347    0 1039 -364.22166 -341.04347  6.36%     - 2304s
     0     0 -341.04387    0 1088 -364.22166 -341.04387  6.36%     - 2328s
     0     0 -341.04387    0 1098 -364.22166 -341.04387  6.36%     - 2351s
     0     0 -341.04387    0 1087 -364.22166 -341.04387  6.36%     - 2476s
     0     0 -341.04387    0 1087 -364.22166 -341.04387  6.36%     - 2516s
     0     2 -341.05218    0 1087 -364.22166 -341.05218  6.36%     - 2711s
     1     3 -344.02142    1 1055 -364.22166 -341.05218  6.36%  5724 2754s
     2     4 -347.81685    2  933 -364.22166 -341.05218  6.36%  3757 2772s
     3     5 -352.25615    3  859 -364.22166 -341.05218  6.36%  2564 2775s
     4     6 -355.03070    4  798 -364.22166 -341.05218  6.36%  2047 2782s
     5     7 -358.91509    4  834 -364.22166 -341.05218  6.36%  1739 2790s
     8     8 -361.13473    6  833 -364.22166 -341.05218  6.36%  1154 2795s
    11     9 -362.24456    8  819 -364.22166 -341.05218  6.36%   858 2801s
    14    10 -363.35438   10  663 -364.22166 -341.05218  6.36%   680 2805s
    18     8 -348.52723    1 1125 -364.22166 -344.08687  5.53%   942 2874s
    19     9 -352.12455    2 1086 -364.22166 -344.08687  5.53%  1012 2901s
    20    10 -352.82984    3 1609 -364.22166 -344.08687  5.53%  1009 2918s
    21    11 -357.56272    4 1072 -364.22166 -344.08687  5.53%   996 2931s
    22    12 -359.78237    5 1004 -364.22166 -344.08687  5.53%   956 2935s
    25    14 -363.66675    8  252 -364.22166 -344.08687  5.53%   852 2941s
    29    12 -349.42327    2 1084 -364.22166 -348.25594  4.38%   804 2965s
    31    14 -350.33074    4 1618 -364.22166 -348.25594  4.38%   786 2985s
    32    15 -354.77741    5 1010 -364.22166 -348.25594  4.38%   794 3000s
    34    17 -361.15890    7  979 -364.22166 -348.25594  4.38%   759 3009s
    35    18 -362.82364    8  952 -364.22166 -348.25594  4.38%   740 3014s
    36    17     cutoff    8      -364.22166 -348.25594  4.38%   721 3016s
    40    15 -354.47579    3  844 -364.22166 -348.55758  4.30%   692 3031s
    41    16 -355.58562    4  780 -364.22166 -348.55758  4.30%   677 3036s
    43    16 -356.69544    5  777 -364.22166 -348.55758  4.30%   662 3042s
    45    16 -356.69544    6  846 -364.22166 -348.55758  4.30%   640 3046s
    48    15     cutoff    7      -364.22166 -348.55758  4.30%   608 3051s
    50    15     cutoff    8      -364.22166 -348.55758  4.30%   589 3055s
    54    17 -360.02491   11  830 -364.22166 -348.55758  4.30%   551 3061s
    57    16 -360.02491   12  829 -364.22166 -348.55758  4.30%   526 3065s
    62    15     cutoff   14      -364.22166 -348.55758  4.30%   487 3070s
    65    18 -363.35438   17  760 -364.22166 -348.55758  4.30%   466 3075s
    70    15 -350.95266    2 1143 -364.22166 -349.44144  4.06%   485 3102s
    71    16 -356.13143    3 1086 -364.22166 -349.44144  4.06%   506 3140s
    72    17 -356.97124    4 1601 -364.22166 -349.44144  4.06%   509 3150s
    73    18 -361.56960    5 1007 -364.22166 -349.44144  4.06%   507 3156s
    76    15     cutoff    5      -364.22166 -349.44144  4.06%   495 3163s
    77    14     cutoff    4      -364.22166 -349.44144  4.06%   493 3167s
    78    15 -354.80864    4 1000 -364.22166 -349.44163  4.06%   529 3196s
    79    16 -360.63521    5  987 -364.22166 -349.44163  4.06%   529 3206s
    81    14     cutoff    6      -364.22166 -349.44163  4.06%   518 3210s
    82    13     cutoff    5      -364.22166 -349.44163  4.06%   516 3215s
    83    14 -358.13690    3 1006 -364.22166 -350.44010  3.78%   567 3248s
    84    13     cutoff    4      -364.22166 -350.44010  3.78%   564 3252s
    85    12     cutoff    4      -364.22166 -350.44010  3.78%   560 3255s
    86    13 -356.69748    5 1664 -364.22166 -350.99649  3.63%   572 3281s
    87    14 -359.47086    6 1115 -364.22166 -350.99649  3.63%   573 3296s
    89    16 -359.47089    8 1119 -364.22166 -350.99649  3.63%   561 3300s
    90    17 -359.83292    9 1507 -364.22166 -350.99649  3.63%   560 3311s
    93    16     cutoff   11      -364.22166 -350.99649  3.63%   545 3316s
    94    17 -363.11655   10 1523 -364.22166 -350.99649  3.63%   544 3320s
    97    20 -363.26651   13 1108 -364.22166 -350.99649  3.63%   529 3326s
   100    20 -363.65961   15 1043 -364.22166 -350.99649  3.63%   515 3331s
   103    19 -352.12536    3 1706 -364.22166 -352.12536  3.32%   517 3349s
   104    20 -353.40756    4 1641 -364.22166 -352.12536  3.32%   526 3367s
   105    21 -357.87140    5 1032 -364.22166 -352.12536  3.32%   531 3385s
   106    22 -362.68064    6  989 -364.22166 -352.12536  3.32%   540 3405s
   109    19     cutoff    6      -364.22166 -352.12536  3.32%   534 3417s
   110    18     cutoff    5      -364.22166 -352.12536  3.32%   615 3517s
   111    19 -363.44468    3 1049 -364.22166 -352.15872  3.31%   674 3587s
   112    18     cutoff    4      -364.22166 -352.15872  3.31%   671 3592s
   114    18 -353.23650    4 1724 -364.22166 -352.84035  3.12%   668 3605s
   115    19 -358.70927    5 1671 -364.22166 -352.84035  3.12%   728 3690s
   116    20 -361.81095    6 1106 -364.22166 -352.84035  3.12%   761 3744s
   117    21 -361.81101    7 1114 -364.22166 -352.84035  3.12%   758 3751s
   119    23 -362.50296    9 1475 -364.22166 -352.84035  3.12%   778 3781s
   120    24 -363.25630   10  999 -364.22166 -352.84035  3.12%   773 3786s
   123    21     cutoff   10      -364.22166 -352.84035  3.12%   758 3791s
   124    20     cutoff    9      -364.22166 -352.84035  3.12%   782 3821s
   125    21 -361.92951    4 1676 -364.22166 -353.26310  3.01%   785 3835s
   127    21 -363.34089    5 1707 -364.22166 -353.26310  3.01%   782 3846s
   130    20 -363.47851    5 1835 -364.22166 -355.03070  2.52%   802 3891s
   132    18     cutoff    6      -364.22166 -355.03070  2.52%   794 3897s
   133    19 -362.24456    5  819 -364.22166 -355.15412  2.49%   792 3907s
   135    21 -363.35438    7  756 -364.22166 -355.15412  2.49%   782 3913s
   136    22 -363.90929    8  758 -364.22166 -355.15412  2.49%   777 3915s
   141    17     cutoff    6      -364.22166 -355.58562  2.37%   754 3920s
   142    18 -357.80526    5  736 -364.22166 -356.91903  2.00%   751 3927s
   143    19 -358.91509    6  623 -364.22166 -356.91903  2.00%   747 3931s
   144    20 -360.57982    7  720 -364.22166 -356.91903  2.00%   747 3938s
   145    21 -362.24456    8  709 -364.22166 -356.91903  2.00%   745 3944s
   146    22 -363.07692    9  667 -364.22166 -356.91903  2.00%   741 3947s
   148    23 -364.04802   11  665 -364.22166 -356.91903  2.00%   733 3952s
   152    19     cutoff    6      -364.22166 -357.61982  1.81%   717 3957s
   153    18     cutoff    5      -364.22166 -357.80526  1.76%   714 3960s
   155    16     cutoff    6      -364.22166 -358.96703  1.44%   764 4107s
   156    15     cutoff    7      -364.22166 -359.51234  1.29%   765 4112s
   157    15 -363.99618    7 1000 -364.22166 -359.51253  1.29%   769 4122s
   159    15 -361.77672    8  968 -364.22166 -359.51253  1.29%   768 4132s
   161    13     cutoff    9      -364.22166 -359.51253  1.29%   760 4135s
   162    12     cutoff    9      -364.22166 -360.08773  1.14%   765 4144s
   163    11     cutoff    6      -364.22166 -360.84479  0.93%   762 4146s
   166     8     cutoff    7      -364.22166 -361.81100  0.66%   750 4150s
   167     7     cutoff    7      -364.22166 -361.81101  0.66%   777 4212s
   168     6     cutoff    8      -364.22166 -362.24456  0.54%   801 4275s
   173     1     cutoff   12      -364.22166 -363.38987  0.23%   781 4280s

Cutting planes:
  Gomory: 4
  Zero half: 534

Explored 175 nodes (260393 simplex iterations) in 4282.49 seconds
Thread count was 1 (of 80 available processors)

Solution count 9: -364.222 -369.643 -374.083 ... -18612.1

Optimal solution found (tolerance 1.00e-04)
Best objective -3.642216632451e+02, best bound -3.642216632451e+02, gap 0.0000%
